100
1000
199
199
199
199
198
197
197
196
196
196
195
194
194
193
193
193
192
192
191
190
190
189
189
188
188
188
188
187
187
187
187
186
186
186
185
185
185
184
183
183
183
183
181
181
180
180
179
178
178
178
178
177
177
175
174
174
173
171
171
171
169
169
168
167
166
166
165
165
165
164
164
164
163
162
161
161
161
161
160
160
160
159
159
159
157
157
157
156
155
155
155
154
154
154
154
153
151
151
151
150
